(set-option :fixedpoint.engine spacer)
(declare-rel h1 (Int) )
(declare-rel h2 (Int Int) )
(declare-rel h3 (Int Int Int) )
(declare-rel h4 (Int Int Int Int) )
(declare-rel inv5 (Int Int Int Int Int Int) )
(declare-rel h5 (Int Int Int Int Int Int) )
(declare-rel Error ( ))
(declare-var v Int)
(declare-var a Int)
(declare-var i Int)
(declare-var va Int)
(declare-var vb Int)
(declare-var i2 Int)
( rule (=> ( = v 11.0 ) ( h1 v ) ))
( rule (=> ( and ( h1 v ) ( and (< a 6) (>= a 5)  )) ( h2 v a )))
( rule (=> ( and ( h2 v a ) ( = i 9.0 )) ( h3 v a i )))
( rule (=> ( and ( h3 v a i ) ( = va ( + v 1.0 ) )) ( h4 v a i va )))
( rule (=> ( and ( inv5 v a i va vb i2 )  ( not( < va 10.0 ) ) ) ( h5 v a i va vb i2 )))
( rule (=> ( h4 v a i va ) ( inv5 v a i va vb i2 )))
( rule (=> ( and ( inv5 v a i va vb i2 ) ( and ( < va 10.0 ) ( or ( and ( = va 6.0 ) ( = vb 7.0 ) )( and  ( not( = va 6.0 ) ) ( = vb 8.0 )) )( = i2 ( + i 1.0 ) ) ) ) ( inv5 v a i va vb i2 ) ))
( rule (=> ( and ( h5 v a i va vb i2 )  ( not( = v 11.0 ) )) Error))
(query Error)